7

0  3  4  3  3  3  3  
3  0  9  9  0  6  2  
4  9  0  5  2  4  8  
3  9  5  0  1  5  3  
3  0  2  1  0  6  5  
3  6  4  5  6  0  9  
3  2  8  3  5  9  0  

0  8  6  7  5  6  3  
8  0  3  3  0  2  3  
6  3  0  5  2  8  9  
7  3  5  0  8  8  8  
5  0  2  8  0  1  1  
6  2  8  8  1  0  3  
3  3  9  8  1  3  0  
